--- Job hw2-2.gms Start 10/11/23 19:34:35 44.3.0 8b8fb1cb WEX-WEI x86 64bit/MS Windows
--- Applying:
    C:\GAMS\44\gmsprmNT.txt
--- GAMS Parameters defined
    Input C:\Users\Rocke\OneDrive\Documents\isye524\hw\hw2\hw2-2.gms
    PageSize 0
    ScrDir C:\Users\Rocke\OneDrive\Documents\isye524\hw\hw2\225a\
    SysDir C:\GAMS\44\
    LogOption 3
    ErrMsg 1
    ErrorLog 99
    IDE 1
    LstTitleLeftAligned 1
Licensee: Introduction to Optimization (CS/ISyE/ECE 524) G230906|0002AS-GEN
          UW-Madison, CS Dept., Fall 2023, Prof. Ferris              DCE850
          C:\GAMS\44\gamslice.txt
          License Admin: Michael C. Ferris, ferris@cs.wisc.edu             
          Course license for use within the course and related course work
Processor information: 1 socket(s), 4 core(s), and 8 thread(s) available
GAMS 44.3.0   Copyright (C) 1987-2023 GAMS Development. All rights reserved
--- Starting compilation
--- hw2-2.gms(76) 3 Mb
--- Starting execution: elapsed 0:00:00.031
--- hw2-2.gms(60) 4 Mb
--- Generating LP model books
--- hw2-2.gms(71) 4 Mb
--- LOOPS M = 2.1
---   4 rows  6 columns  20 non-zeroes
--- Range statistics (absolute non-zero finite values)
--- RHS       [min, max] : [ 1.170E+02, 4.200E+02] - Zero values observed as well
--- Bound     [min, max] : [        NA,        NA] - Zero values observed as well
--- Matrix    [min, max] : [ 1.000E+00, 1.900E+01]
--- Executing CPLEX (Solvelink=2): elapsed 0:00:00.043

IBM ILOG CPLEX   44.3.0 8b8fb1cb Sep 1, 2023           WEI x86 64bit/MS Window

--- GAMS/CPLEX licensed for continuous and discrete problems.
--- GMO setup time: 0.00s
--- GMO memory 0.50 Mb (peak 0.50 Mb)
--- Dictionary memory 0.00 Mb
--- Cplex 22.1.1.0 link memory 0.00 Mb (peak 0.00 Mb)
--- Starting Cplex

Version identifier: 22.1.1.0 | 2022-11-27 | 9160aff4d
CPXPARAM_Advance                                 0
CPXPARAM_Simplex_Display                         2
CPXPARAM_Threads                                 1
CPXPARAM_MIP_Display                             4
CPXPARAM_MIP_Pool_Capacity                       0
CPXPARAM_MIP_Tolerances_AbsMIPGap                0
Tried aggregator 1 time.
LP Presolve eliminated 0 rows and 2 columns.
Reduced LP has 3 rows, 4 columns, and 12 nonzeros.
Presolve time = 0.00 sec. (0.00 ticks)

Iteration      Dual Objective            In Variable           Out Variable
     1  I            0.000000      produce(bookcase)    res_con(wood) slack
     2            1833.000000         produce(chair)    res_con(work) slack
     3            1827.000000      produce(bedframe)   res_con(metal) slack

--- LP status (1): optimal.
--- Cplex Time: 0.02sec (det. 0.01 ticks)


Optimal solution found
Objective:         1827.000000

--- Reading solution for model books
--- Executing after solve: elapsed 0:00:00.152
--- hw2-2.gms(60) 4 Mb
--- Generating LP model books
--- hw2-2.gms(71) 4 Mb
--- LOOPS M = 2.2
---   4 rows  6 columns  20 non-zeroes
--- Range statistics (absolute non-zero finite values)
--- RHS       [min, max] : [ 1.170E+02, 4.200E+02] - Zero values observed as well
--- Bound     [min, max] : [        NA,        NA] - Zero values observed as well
--- Matrix    [min, max] : [ 1.000E+00, 1.900E+01]
--- Executing CPLEX (Solvelink=2): elapsed 0:00:00.157

IBM ILOG CPLEX   44.3.0 8b8fb1cb Sep 1, 2023           WEI x86 64bit/MS Window

--- GAMS/CPLEX licensed for continuous and discrete problems.
--- GMO setup time: 0.00s
--- GMO memory 0.50 Mb (peak 0.50 Mb)
--- Dictionary memory 0.00 Mb
--- Cplex 22.1.1.0 link memory 0.00 Mb (peak 0.00 Mb)
--- Starting Cplex

Version identifier: 22.1.1.0 | 2022-11-27 | 9160aff4d
CPXPARAM_Advance                                 2
CPXPARAM_Simplex_Display                         2
CPXPARAM_Threads                                 1
CPXPARAM_MIP_Display                             4
CPXPARAM_MIP_Pool_Capacity                       0
CPXPARAM_MIP_Tolerances_AbsMIPGap                0
Tried aggregator 1 time.
LP Presolve eliminated 0 rows and 2 columns.
Reduced LP has 3 rows, 4 columns, and 12 nonzeros.
Presolve time = 0.00 sec. (0.00 ticks)
Using devex.

Iteration           Objective            In Variable           Out Variable
     1            1866.000000          produce(desk)      produce(bookcase)

--- LP status (1): optimal.
--- Cplex Time: 0.02sec (det. 0.01 ticks)


Optimal solution found
Objective:         1866.000000

--- Reading solution for model books
--- Executing after solve: elapsed 0:00:00.252
--- hw2-2.gms(60) 4 Mb
--- Generating LP model books
--- hw2-2.gms(71) 4 Mb
--- LOOPS M = 2.3
---   4 rows  6 columns  20 non-zeroes
--- Range statistics (absolute non-zero finite values)
--- RHS       [min, max] : [ 1.250E+02, 4.200E+02] - Zero values observed as well
--- Bound     [min, max] : [        NA,        NA] - Zero values observed as well
--- Matrix    [min, max] : [ 1.000E+00, 1.900E+01]
--- Executing CPLEX (Solvelink=2): elapsed 0:00:00.259

IBM ILOG CPLEX   44.3.0 8b8fb1cb Sep 1, 2023           WEI x86 64bit/MS Window

--- GAMS/CPLEX licensed for continuous and discrete problems.
--- GMO setup time: 0.00s
--- GMO memory 0.50 Mb (peak 0.50 Mb)
--- Dictionary memory 0.00 Mb
--- Cplex 22.1.1.0 link memory 0.00 Mb (peak 0.00 Mb)
--- Starting Cplex

Version identifier: 22.1.1.0 | 2022-11-27 | 9160aff4d
CPXPARAM_Advance                                 2
CPXPARAM_Simplex_Display                         2
CPXPARAM_Threads                                 1
CPXPARAM_MIP_Display                             4
CPXPARAM_MIP_Pool_Capacity                       0
CPXPARAM_MIP_Tolerances_AbsMIPGap                0
Tried aggregator 1 time.
LP Presolve eliminated 0 rows and 2 columns.
Reduced LP has 3 rows, 4 columns, and 12 nonzeros.
Presolve time = 0.00 sec. (0.00 ticks)
Using devex.

--- LP status (1): optimal.
--- Cplex Time: 0.00sec (det. 0.01 ticks)


Optimal solution found
Objective:         1890.000000

--- Reading solution for model books
--- Executing after solve: elapsed 0:00:00.339
--- hw2-2.gms(60) 4 Mb
--- Generating LP model books
--- hw2-2.gms(71) 4 Mb
--- LOOPS M = 2.4
---   4 rows  6 columns  20 non-zeroes
--- Range statistics (absolute non-zero finite values)
--- RHS       [min, max] : [ 1.250E+02, 4.200E+02] - Zero values observed as well
--- Bound     [min, max] : [        NA,        NA] - Zero values observed as well
--- Matrix    [min, max] : [ 1.000E+00, 1.900E+01]
--- Executing CPLEX (Solvelink=2): elapsed 0:00:00.344

IBM ILOG CPLEX   44.3.0 8b8fb1cb Sep 1, 2023           WEI x86 64bit/MS Window

--- GAMS/CPLEX licensed for continuous and discrete problems.
--- GMO setup time: 0.00s
--- GMO memory 0.50 Mb (peak 0.50 Mb)
--- Dictionary memory 0.00 Mb
--- Cplex 22.1.1.0 link memory 0.00 Mb (peak 0.00 Mb)
--- Starting Cplex

Version identifier: 22.1.1.0 | 2022-11-27 | 9160aff4d
CPXPARAM_Advance                                 2
CPXPARAM_Simplex_Display                         2
CPXPARAM_Threads                                 1
CPXPARAM_MIP_Display                             4
CPXPARAM_MIP_Pool_Capacity                       0
CPXPARAM_MIP_Tolerances_AbsMIPGap                0
Tried aggregator 1 time.
LP Presolve eliminated 0 rows and 2 columns.
Reduced LP has 3 rows, 4 columns, and 12 nonzeros.
Presolve time = 0.00 sec. (0.00 ticks)
Using devex.

--- LP status (1): optimal.
--- Cplex Time: 0.00sec (det. 0.01 ticks)


Optimal solution found
Objective:         1890.000000

--- Reading solution for model books
--- Executing after solve: elapsed 0:00:00.408
--- hw2-2.gms(76) 4 Mb
*** Status: Normal completion
--- Job hw2-2.gms Stop 10/11/23 19:34:35 elapsed 0:00:00.408
